c This file is generated by v2cnfMtr
c Generated on Thu Feb 18 21:07:29 2016
p cnf 178 431
-18 -2 -3 -4 -17 0
18 17 0
2 17 0
3 17 0
4 17 0
7 19 0
-7 -19 0
8 20 0
-8 -20 0
1 21 0
-1 -21 0
-1 -19 23 0
1 -23 0
19 -23 0
-21 -19 24 0
21 -24 0
19 -24 0
-5 -7 25 0
5 -25 0
7 -25 0
-6 -7 26 0
6 -26 0
7 -26 0
-23 -20 32 0
23 -32 0
20 -32 0
-24 -8 30 0
24 -30 0
8 -30 0
-25 -20 28 0
25 -28 0
20 -28 0
-26 -8 27 0
26 -27 0
8 -27 0
27 28 -29 0
-27 29 0
-28 29 0
29 30 -31 0
-29 31 0
-30 31 0
32 31 -78 0
-32 78 0
-31 78 0
9 33 0
-9 -33 0
10 34 0
-10 -34 0
18 35 0
-18 -35 0
-18 -33 37 0
18 -37 0
33 -37 0
-35 -33 38 0
35 -38 0
33 -38 0
-5 -9 39 0
5 -39 0
9 -39 0
-6 -9 40 0
6 -40 0
9 -40 0
-37 -34 46 0
37 -46 0
34 -46 0
-38 -10 44 0
38 -44 0
10 -44 0
-39 -34 42 0
39 -42 0
34 -42 0
-40 -10 41 0
40 -41 0
10 -41 0
41 42 -43 0
-41 43 0
-42 43 0
43 44 -45 0
-43 45 0
-44 45 0
46 45 -36 0
-46 36 0
-45 36 0
11 47 0
-11 -47 0
12 48 0
-12 -48 0
3 49 0
-3 -49 0
-3 -47 51 0
3 -51 0
47 -51 0
-49 -47 52 0
49 -52 0
47 -52 0
-5 -11 53 0
5 -53 0
11 -53 0
-6 -11 54 0
6 -54 0
11 -54 0
-51 -48 60 0
51 -60 0
48 -60 0
-52 -12 58 0
52 -58 0
12 -58 0
-53 -48 56 0
53 -56 0
48 -56 0
-54 -12 55 0
54 -55 0
12 -55 0
55 56 -57 0
-55 57 0
-56 57 0
57 58 -59 0
-57 59 0
-58 59 0
60 59 -50 0
-60 50 0
-59 50 0
13 61 0
-13 -61 0
14 62 0
-14 -62 0
2 63 0
-2 -63 0
-2 -61 65 0
2 -65 0
61 -65 0
-63 -61 66 0
63 -66 0
61 -66 0
-5 -13 67 0
5 -67 0
13 -67 0
-6 -13 68 0
6 -68 0
13 -68 0
-65 -62 74 0
65 -74 0
62 -74 0
-66 -14 72 0
66 -72 0
14 -72 0
-67 -62 70 0
67 -70 0
62 -70 0
-68 -14 69 0
68 -69 0
14 -69 0
69 70 -71 0
-69 71 0
-70 71 0
71 72 -73 0
-71 73 0
-72 73 0
74 73 -64 0
-74 64 0
-73 64 0
15 75 0
-15 -75 0
16 76 0
-16 -76 0
78 77 0
-78 -77 0
-78 -75 79 0
78 -79 0
75 -79 0
-77 -75 80 0
77 -80 0
75 -80 0
-5 -15 81 0
5 -81 0
15 -81 0
-6 -15 82 0
6 -82 0
15 -82 0
-79 -76 88 0
79 -88 0
76 -88 0
-80 -16 86 0
80 -86 0
16 -86 0
-81 -76 84 0
81 -84 0
76 -84 0
-82 -16 83 0
82 -83 0
16 -83 0
83 84 -85 0
-83 85 0
-84 85 0
85 86 -87 0
-85 87 0
-86 87 0
88 87 -1 0
-88 1 0
-87 1 0
-78 -36 -50 -64 -78 0
78 78 0
36 78 0
50 78 0
64 78 0
c The second circuit:
-106 -90 -91 -92 -105 0
106 105 0
90 105 0
91 105 0
92 105 0
95 107 0
-95 -107 0
96 108 0
-96 -108 0
89 109 0
-89 -109 0
-89 -107 111 0
89 -111 0
107 -111 0
-109 -107 112 0
109 -112 0
107 -112 0
-93 -95 113 0
93 -113 0
95 -113 0
-94 -95 114 0
94 -114 0
95 -114 0
-111 -108 120 0
111 -120 0
108 -120 0
-112 -96 118 0
112 -118 0
96 -118 0
-113 -108 116 0
113 -116 0
108 -116 0
-114 -96 115 0
114 -115 0
96 -115 0
115 116 -117 0
-115 117 0
-116 117 0
117 118 -119 0
-117 119 0
-118 119 0
120 119 -166 0
-120 166 0
-119 166 0
97 121 0
-97 -121 0
98 122 0
-98 -122 0
106 123 0
-106 -123 0
-106 -121 125 0
106 -125 0
121 -125 0
-123 -121 126 0
123 -126 0
121 -126 0
-93 -97 127 0
93 -127 0
97 -127 0
-94 -97 128 0
94 -128 0
97 -128 0
-125 -122 134 0
125 -134 0
122 -134 0
-126 -98 132 0
126 -132 0
98 -132 0
-127 -122 130 0
127 -130 0
122 -130 0
-128 -98 129 0
128 -129 0
98 -129 0
129 130 -131 0
-129 131 0
-130 131 0
131 132 -133 0
-131 133 0
-132 133 0
134 133 -124 0
-134 124 0
-133 124 0
99 135 0
-99 -135 0
100 136 0
-100 -136 0
91 137 0
-91 -137 0
-91 -135 139 0
91 -139 0
135 -139 0
-137 -135 140 0
137 -140 0
135 -140 0
-93 -99 141 0
93 -141 0
99 -141 0
-94 -99 142 0
94 -142 0
99 -142 0
-139 -136 148 0
139 -148 0
136 -148 0
-140 -100 146 0
140 -146 0
100 -146 0
-141 -136 144 0
141 -144 0
136 -144 0
-142 -100 143 0
142 -143 0
100 -143 0
143 144 -145 0
-143 145 0
-144 145 0
145 146 -147 0
-145 147 0
-146 147 0
148 147 -138 0
-148 138 0
-147 138 0
101 149 0
-101 -149 0
102 150 0
-102 -150 0
90 151 0
-90 -151 0
-90 -149 153 0
90 -153 0
149 -153 0
-151 -149 154 0
151 -154 0
149 -154 0
-93 -101 155 0
93 -155 0
101 -155 0
-94 -101 156 0
94 -156 0
101 -156 0
-153 -150 162 0
153 -162 0
150 -162 0
-154 -102 160 0
154 -160 0
102 -160 0
-155 -150 158 0
155 -158 0
150 -158 0
-156 -102 157 0
156 -157 0
102 -157 0
157 158 -159 0
-157 159 0
-158 159 0
159 160 -161 0
-159 161 0
-160 161 0
162 161 -152 0
-162 152 0
-161 152 0
103 163 0
-103 -163 0
104 164 0
-104 -164 0
166 165 0
-166 -165 0
-166 -163 167 0
166 -167 0
163 -167 0
-165 -163 168 0
165 -168 0
163 -168 0
-93 -103 169 0
93 -169 0
103 -169 0
-94 -103 170 0
94 -170 0
103 -170 0
-167 -164 176 0
167 -176 0
164 -176 0
-168 -104 174 0
168 -174 0
104 -174 0
-169 -164 172 0
169 -172 0
164 -172 0
-170 -104 171 0
170 -171 0
104 -171 0
171 172 -173 0
-171 173 0
-172 173 0
173 174 -175 0
-173 175 0
-174 175 0
176 175 -89 0
-176 89 0
-175 89 0
-166 -124 -138 -152 -166 0
166 166 0
124 166 0
138 166 0
152 166 0
5 0
-6 0
c Force PIs of 2 ckts to be the same:
1 -89 0
-1 89 0
2 -90 0
-2 90 0
3 -91 0
-3 91 0
4 -92 0
-4 92 0
5 -93 0
-5 93 0
6 -94 0
-6 94 0
c XOR outputs of 2 ckts:
-17 -105 -177 0
17 105 -177 0
17 -105 177 0
-17 105 177 0
c The last OR gate of the miter:
177 -178 0
-177 178 0
178 0
